NAME          DCAP_3_4_2_500_SS228
ROWS
 N  OBJ
 L  CON1
 L  CON2
 L  CON3
 L  CON4
 L  CON5
 L  CON6
 L  CON7
 L  CON8
 L  CON9
 L  CON10
 L  CON11
 L  CON12
 E  CON13
 E  CON14
 E  CON15
 E  CON16
 E  CON17
 E  CON18
 E  CON19
 E  CON20
COLUMNS
    x[1,1]    OBJ       6.180167      CON1      1.000000    
    x[1,1]    CON7      -1.000000     CON8      -1.000000   
    x[1,2]    OBJ       5.039546      CON2      1.000000    
    x[1,2]    CON8      -1.000000   
    x[2,1]    OBJ       6.732585      CON3      1.000000    
    x[2,1]    CON9      -1.000000     CON10     -1.000000   
    x[2,2]    OBJ       7.443064      CON4      1.000000    
    x[2,2]    CON10     -1.000000   
    x[3,1]    OBJ       6.563535      CON5      1.000000    
    x[3,1]    CON11     -1.000000     CON12     -1.000000   
    x[3,2]    OBJ       6.054841      CON6      1.000000    
    x[3,2]    CON12     -1.000000   
    MARKER    'MARKER'                'INTORG'
    u[1,1]    OBJ       48.076654     CON1      -1.000000   
    u[1,2]    OBJ       49.466655     CON2      -1.000000   
    u[2,1]    OBJ       49.996186     CON3      -1.000000   
    u[2,2]    OBJ       32.230043     CON4      -1.000000   
    u[3,1]    OBJ       20.066487     CON5      -1.000000   
    u[3,2]    OBJ       27.484319     CON6      -1.000000   
    y[1,1,1]  OBJ       9.842450      CON7      0.706083    
    y[1,1,1]  CON13     1.000000    
    y[1,1,2]  OBJ       7.939723      CON8      0.990936    
    y[1,1,2]  CON14     1.000000    
    y[1,2,1]  OBJ       5.474622      CON7      1.255129    
    y[1,2,1]  CON15     1.000000    
    y[1,2,2]  OBJ       5.145611      CON8      0.837473    
    y[1,2,2]  CON16     1.000000    
    y[1,3,1]  OBJ       7.161702      CON7      1.495311    
    y[1,3,1]  CON17     1.000000    
    y[1,3,2]  OBJ       9.644614      CON8      1.217354    
    y[1,3,2]  CON18     1.000000    
    y[1,4,1]  OBJ       9.140890      CON7      1.444855    
    y[1,4,1]  CON19     1.000000    
    y[1,4,2]  OBJ       8.896950      CON8      0.695809    
    y[1,4,2]  CON20     1.000000    
    y[2,1,1]  OBJ       9.362217      CON9      0.706083    
    y[2,1,1]  CON13     1.000000    
    y[2,1,2]  OBJ       6.626573      CON10     0.990936    
    y[2,1,2]  CON14     1.000000    
    y[2,2,1]  OBJ       8.357326      CON9      1.255129    
    y[2,2,1]  CON15     1.000000    
    y[2,2,2]  OBJ       5.195509      CON10     0.837473    
    y[2,2,2]  CON16     1.000000    
    y[2,3,1]  OBJ       7.243129      CON9      1.495311    
    y[2,3,1]  CON17     1.000000    
    y[2,3,2]  OBJ       6.420997      CON10     1.217354    
    y[2,3,2]  CON18     1.000000    
    y[2,4,1]  OBJ       5.863292      CON9      1.444855    
    y[2,4,1]  CON19     1.000000    
    y[2,4,2]  OBJ       9.732469      CON10     0.695809    
    y[2,4,2]  CON20     1.000000    
    y[3,1,1]  OBJ       5.772655      CON11     0.706083    
    y[3,1,1]  CON13     1.000000    
    y[3,1,2]  OBJ       9.969838      CON12     0.990936    
    y[3,1,2]  CON14     1.000000    
    y[3,2,1]  OBJ       7.433238      CON11     1.255129    
    y[3,2,1]  CON15     1.000000    
    y[3,2,2]  OBJ       9.701355      CON12     0.837473    
    y[3,2,2]  CON16     1.000000    
    y[3,3,1]  OBJ       5.194494      CON11     1.495311    
    y[3,3,1]  CON17     1.000000    
    y[3,3,2]  OBJ       5.528449      CON12     1.217354    
    y[3,3,2]  CON18     1.000000    
    y[3,4,1]  OBJ       5.018007      CON11     1.444855    
    y[3,4,1]  CON19     1.000000    
    y[3,4,2]  OBJ       5.875715      CON12     0.695809    
    y[3,4,2]  CON20     1.000000    
    z[1,1]    OBJ       870.725773    CON13     1.000000    
    z[1,2]    OBJ       893.137215    CON14     1.000000    
    z[2,1]    OBJ       748.334776    CON15     1.000000    
    z[2,2]    OBJ       924.052414    CON16     1.000000    
    z[3,1]    OBJ       946.156335    CON17     1.000000    
    z[3,2]    OBJ       739.872886    CON18     1.000000    
    z[4,1]    OBJ       817.683288    CON19     1.000000    
    z[4,2]    OBJ       922.940212    CON20     1.000000    
    MARKER    'MARKER'                 'INTEND'
RHS
    RHS       CON1      -0.000000     CON2      -0.000000   
    RHS       CON3      -0.000000     CON4      -0.000000   
    RHS       CON5      -0.000000     CON6      -0.000000   
    RHS       CON7      -0.000000     CON8      -0.000000   
    RHS       CON9      -0.000000     CON10     -0.000000   
    RHS       CON11     -0.000000     CON12     -0.000000   
    RHS       CON13     1.000000      CON14     1.000000    
    RHS       CON15     1.000000      CON16     1.000000    
    RHS       CON17     1.000000      CON18     1.000000    
    RHS       CON19     1.000000      CON20     1.000000    
BOUNDS
 BV BOUND     u[1,1]  
 BV BOUND     u[1,2]  
 BV BOUND     u[2,1]  
 BV BOUND     u[2,2]  
 BV BOUND     u[3,1]  
 BV BOUND     u[3,2]  
 BV BOUND     y[1,1,1]
 BV BOUND     y[1,1,2]
 BV BOUND     y[1,2,1]
 BV BOUND     y[1,2,2]
 BV BOUND     y[1,3,1]
 BV BOUND     y[1,3,2]
 BV BOUND     y[1,4,1]
 BV BOUND     y[1,4,2]
 BV BOUND     y[2,1,1]
 BV BOUND     y[2,1,2]
 BV BOUND     y[2,2,1]
 BV BOUND     y[2,2,2]
 BV BOUND     y[2,3,1]
 BV BOUND     y[2,3,2]
 BV BOUND     y[2,4,1]
 BV BOUND     y[2,4,2]
 BV BOUND     y[3,1,1]
 BV BOUND     y[3,1,2]
 BV BOUND     y[3,2,1]
 BV BOUND     y[3,2,2]
 BV BOUND     y[3,3,1]
 BV BOUND     y[3,3,2]
 BV BOUND     y[3,4,1]
 BV BOUND     y[3,4,2]
 BV BOUND     z[1,1]  
 BV BOUND     z[1,2]  
 BV BOUND     z[2,1]  
 BV BOUND     z[2,2]  
 BV BOUND     z[3,1]  
 BV BOUND     z[3,2]  
 BV BOUND     z[4,1]  
 BV BOUND     z[4,2]  
ENDATA
